%%% static parameters %%%
timespan = 1;
Clients_N = [4000];
Demand_W = [15];
Lt0 = [4];
Lt1 = [4];
SS_ = [0.85];
DS_D = [20];
K = [200];
MA = [500];
HC = [0.05];
%%% dynamic parameters %%%
lost_ratio_sales_ret_th = 0.0009550206247181816;
lost_ratio_sales_ret_w = 71;
lost_ratio_sales_dis_th = 0.00011172519548822923;
lost_ratio_sales_dis_w = 25;
lost_ratio_sales_fac_th = 0.0008527862663352786;
lost_ratio_sales_fac_w = 76;
stock_customer_MA_mean_relative_th = 0.8274883586702206;
stock_customer_MA_mean_relative_w = 21;
stock_distributor_MA_mean_relative_th = 0.18868294466059887;
stock_distributor_MA_mean_relative_w = 28;
stock_retailer_MA_mean_relative_th = 0.9017820604414386;
stock_retailer_MA_mean_relative_w = 36;
stock_factory_MA_mean_relative_th = 0.49933518644456243;
stock_factory_MA_mean_relative_w = 17;
